; benchmark generated from python API
(set-info :status unknown)
(declare-datatypes ((RealState 0)) (((RMk1 (rval1 Real)) (RMk2 (rval2 Real)))))
 (assert
 (forall ((|v11:0| Real) )(forall ((|v10:1| Real) )(forall ((|v9:2| Real) )(forall ((|v8:3| Real) )(exists ((|v7:4_st| RealState) (val!4100 Real) )(exists ((|v6:5_st| RealState) (val!4101 Real) )(exists ((|v5:6_st| RealState) (val!4102 Real) )(exists ((|v4:7_st| RealState) (val!4103 Real) )(forall ((|v3:8| Real) )(forall ((|v2:9| Real) )(forall ((|v1:10| Real) )(forall ((|v0:11| Real) )(let ((?x2370 (- 12.0)))
 (let ((?x3180 (- 14.0)))
 (let ((?x1648 (* ?x3180 |v2:9|)))
 (let ((?x2142 (* 5.0 |v0:11|)))
 (let ((?x971 (+ (+ (+ (* (- 1.0) (rval2 |v6:5_st|)) (* 16.0 (rval2 |v5:6_st|))) ?x2142) ?x1648)))
 (let ((?x253 (- 17.0)))
 (let ((?x745 (- 7.0)))
 (let ((?x754 (* ?x745 |v8:3|)))
 (let ((?x1974 (+ (+ (* (- 19.0) |v3:8|) (* 4.0 |v1:10|)) (* (- 6.0) |v1:10|))))
 (let ((?x118 (- 19.0)))
 (let ((?x2750 (* ?x118 |v2:9|)))
 (let ((?x1674 (+ (+ (+ (* 17.0 |v8:3|) (* (- 6.0) (rval2 |v5:6_st|))) ?x2750) (* 20.0 (rval2 |v4:7_st|)))))
 (let ((?x1794 (- 9.0)))
 (let ((?x951 (- 11.0)))
 (let ((?x490 (* ?x951 |v8:3|)))
 (let (($x1465 (<= (+ (+ (+ (* (- 15.0) |v10:1|) (* 9.0 (rval2 |v7:4_st|))) ?x1648) ?x490) ?x1794)))
 (let (($x150 (and (and $x1465 (<= ?x1674 6.0)) (and (<= (+ ?x1974 ?x754) ?x253) (<= ?x971 ?x2370)))))
 (let ((?x728 (* 12.0 |v2:9|)))
 (let (($x1450 (<= (+ (+ (+ (* ?x2370 |v2:9|) (* ?x745 |v1:10|)) (* 17.0 |v10:1|)) ?x728) ?x745)))
 (let ((?x2374 (* 20.0 |v1:10|)))
 (let (($x2678 (<= (+ (+ (+ (* ?x2370 |v1:10|) (* 9.0 |v3:8|)) (* 12.0 |v9:2|)) ?x2374) ?x2370)))
 (let ((?x2022 (* 3.0 |v11:0|)))
 (let (($x1482 (<= (+ (+ (+ (* (- 16.0) (rval2 |v6:5_st|)) (* 0.0 |v10:1|)) ?x2142) ?x2022) 10.0)))
 (let ((?x1403 (* 14.0 |v0:11|)))
 (let (($x1897 (<= (+ (+ (+ (* (- 1.0) |v3:8|) (* ?x951 |v9:2|)) (* ?x1794 |v3:8|)) ?x1403) ?x745)))
 (let ((?x434 (+ (+ (* 18.0 |v0:11|) (* 9.0 (rval2 |v7:4_st|))) (* (- 15.0) (rval2 |v5:6_st|)))))
 (let (($x333 (or (<= (+ ?x434 (* 10.0 |v9:2|)) 15.0) (and (or (or $x1897 $x1482) (or $x2678 $x1450)) $x150))))
 (let ((?x2688 (* ?x2370 |v2:9|)))
 (let (($x2932 (<= (+ (+ (+ (* 10.0 |v3:8|) (* 19.0 |v3:8|)) (* 18.0 |v0:11|)) ?x2688) ?x118)))
 (let (($x2100 (<= (+ (+ (+ ?x2750 (* ?x951 (rval2 |v5:6_st|))) (* 11.0 |v1:10|)) ?x754) 5.0)))
 (let ((?x2627 (* 7.0 |v8:3|)))
 (let ((?x2966 (rval2 |v4:7_st|)))
 (let ((?x2944 (- 1.0)))
 (let ((?x2927 (* ?x2944 ?x2966)))
 (let (($x1635 (<= (+ (+ (+ (* 13.0 (rval2 |v5:6_st|)) (* 2.0 |v3:8|)) ?x2927) ?x2627) 9.0)))
 (let ((?x1306 (* ?x253 |v11:0|)))
 (let ((?x1330 (+ (+ (+ (* ?x2944 |v10:1|) (* ?x253 |v8:3|)) (* 8.0 (rval2 |v5:6_st|))) ?x1306)))
 (let ((?x1253 (- 20.0)))
 (let ((?x355 (* ?x1253 |v11:0|)))
 (let ((?x2561 (+ (+ (+ (* 4.0 |v9:2|) (* (- 2.0) (rval2 |v7:4_st|))) ?x355) (* (- 5.0) (rval2 |v7:4_st|)))))
 (let ((?x2132 (* ?x2944 |v11:0|)))
 (let (($x195 (<= (+ (+ (+ ?x1306 (* (- 10.0) (rval2 |v7:4_st|))) (* 11.0 |v8:3|)) ?x2132) 8.0)))
 (let ((?x111 (rval2 |v5:6_st|)))
 (let ((?x379 (* 13.0 ?x111)))
 (let ((?x1467 (+ (+ (+ (* 20.0 (rval2 |v6:5_st|)) (* (- 6.0) ?x111)) ?x379) (* ?x3180 |v8:3|))))
 (let ((?x74 (- 15.0)))
 (let ((?x1934 (rval2 |v7:4_st|)))
 (let ((?x2457 (* 15.0 ?x1934)))
 (let (($x3090 (<= (+ (+ (+ (* (- 16.0) |v1:10|) (* ?x1794 |v8:3|)) (* 2.0 |v10:1|)) ?x2457) ?x74)))
 (let (($x37 (or (and (and $x3090 (<= ?x1467 8.0)) (or $x195 (<= ?x2561 ?x2944))) (or (and (<= ?x1330 3.0) $x1635) (and $x2100 $x2932)))))
 (let ((?x1012 (+ (+ (+ (* ?x745 ?x1934) (* 9.0 ?x1934)) (* (- 13.0) |v11:0|)) (* ?x74 |v8:3|))))
 (let ((?x2539 (+ (+ (+ (* ?x951 |v11:0|) (* (- 6.0) |v8:3|)) (* ?x118 |v0:11|)) (* ?x1253 |v9:2|))))
 (let ((?x1365 (+ (+ (+ ?x355 (* (- 5.0) ?x111)) (* (- 3.0) |v0:11|)) (* 9.0 ?x111))))
 (let ((?x108 (* 9.0 |v1:10|)))
 (let ((?x2931 (+ (+ (+ (* (- 5.0) |v9:2|) (* ?x2370 |v9:2|)) (* (- 3.0) |v11:0|)) ?x108)))
 (let ((?x252 (+ (+ (+ (* (- 16.0) |v1:10|) (* 16.0 ?x2966)) (* (- 2.0) |v8:3|)) (* ?x253 |v9:2|))))
 (let ((?x2971 (* 3.0 |v10:1|)))
 (let ((?x551 (+ (+ (+ (* 3.0 |v2:9|) (* (- 10.0) |v10:1|)) (* 3.0 ?x1934)) ?x2971)))
 (let ((?x3120 (* 11.0 |v1:10|)))
 (let ((?x1621 (+ (+ (+ (* (- 18.0) ?x1934) (* (- 3.0) |v8:3|)) (* 12.0 |v3:8|)) ?x3120)))
 (let (($x2597 (or (or (<= ?x1621 18.0) (<= ?x551 ?x2370)) (and (<= ?x252 16.0) (<= ?x2931 17.0)))))
 (let (($x1337 (and $x2597 (and (and (<= ?x1365 ?x3180) (<= ?x2539 3.0)) (<= ?x1012 14.0)))))
 (let ((?x2522 (+ (+ (+ (* 16.0 |v0:11|) (* 15.0 |v8:3|)) (* 7.0 |v9:2|)) (* (- 16.0) ?x2966))))
 (let ((?x480 (+ (+ (+ (* (- 16.0) |v2:9|) (* 14.0 |v11:0|)) (* (- 10.0) |v1:10|)) (* (- 4.0) (rval2 |v6:5_st|)))))
 (let ((?x2023 (- 4.0)))
 (let ((?x2797 (* 15.0 |v2:9|)))
 (let (($x1195 (<= (+ (+ (+ ?x2927 (* (- 18.0) |v9:2|)) (* (- 3.0) ?x1934)) ?x2797) ?x2023)))
 (let ((?x813 (rval2 |v6:5_st|)))
 (let ((?x2226 (- 2.0)))
 (let ((?x1858 (* ?x2226 ?x813)))
 (let (($x1957 (<= (+ (+ (+ (* 9.0 |v9:2|) (* (- 5.0) ?x111)) (* ?x1794 ?x813)) ?x1858) 12.0)))
 (let ((?x1385 (- 6.0)))
 (let ((?x1454 (* ?x2023 |v1:10|)))
 (let (($x3156 (<= (+ (+ (+ (* ?x118 |v10:1|) (* 11.0 |v8:3|)) (* 5.0 |v11:0|)) ?x1454) ?x1385)))
 (let (($x953 (<= (+ (+ (+ (* 5.0 |v2:9|) ?x2627) (* ?x3180 |v3:8|)) (* ?x745 ?x2966)) ?x118)))
 (let ((?x60 (+ (+ (+ (* 20.0 |v0:11|) ?x490) (* (- 16.0) ?x813)) (* 10.0 ?x2966))))
 (let (($x50 (and (and (and (<= ?x60 4.0) $x953) $x3156) (and (and $x1957 $x1195) (or (<= ?x480 9.0) (<= ?x2522 19.0))))))
 (let ((?x2340 (* 18.0 ?x813)))
 (let (($x1993 (<= (+ (+ (+ (* 19.0 ?x111) (* ?x253 ?x2966)) (* ?x118 ?x2966)) ?x2340) ?x951)))
 (let ((?x2680 (* ?x2944 |v1:10|)))
 (let (($x1806 (<= (+ (+ (+ (* ?x74 ?x2966) (* 18.0 |v0:11|)) (* 3.0 |v3:8|)) ?x2680) ?x2944)))
 (let (($x1548 (and $x1806 (<= (+ (+ (+ ?x2750 (* ?x3180 |v1:10|)) ?x2132) (* ?x1794 |v9:2|)) 0.0))))
 (let (($x1569 (<= (+ (+ (+ (* ?x74 ?x1934) (* 4.0 ?x1934)) ?x1858) (* 8.0 |v9:2|)) 8.0)))
 (let ((?x2278 (* 9.0 |v11:0|)))
 (let (($x430 (<= (+ (+ (+ (* 6.0 |v10:1|) (* 8.0 ?x1934)) (* 4.0 |v1:10|)) ?x2278) ?x745)))
 (let ((?x187 (* ?x1253 |v3:8|)))
 (let ((?x397 (+ (+ (+ (* (- 13.0) |v11:0|) (* 18.0 |v3:8|)) (* 6.0 ?x111)) ?x187)))
 (let ((?x2098 (* 5.0 ?x813)))
 (let (($x1754 (<= (+ (+ (+ (* 17.0 |v3:8|) (* ?x118 ?x111)) (* ?x2944 |v10:1|)) ?x2098) ?x1794)))
 (let ((?x2249 (* ?x745 ?x2966)))
 (let (($x329 (<= (+ (+ (+ (* 0.0 |v9:2|) (* 20.0 ?x1934)) (* 5.0 |v11:0|)) ?x2249) ?x2226)))
 (let ((?x2749 (+ (+ (+ (* 17.0 ?x2966) (* 12.0 ?x111)) (* 15.0 |v1:10|)) (* 18.0 ?x2966))))
 (let ((?x2727 (* 12.0 |v3:8|)))
 (let ((?x623 (+ (+ (+ (* (- 13.0) |v9:2|) (* 19.0 |v10:1|)) (* 4.0 ?x2966)) ?x2727)))
 (let ((?x2795 (+ (+ (+ (* 11.0 |v9:2|) (* 5.0 |v9:2|)) (* (- 3.0) |v0:11|)) ?x2142)))
 (let ((?x2605 (* ?x2023 |v0:11|)))
 (let (($x2837 (<= (+ (+ (+ (* ?x1385 |v3:8|) (* ?x1385 ?x2966)) (* 18.0 ?x1934)) ?x2605) 19.0)))
 (let ((?x2843 (+ (+ (+ (* 4.0 |v11:0|) (* ?x2944 |v3:8|)) (* 4.0 |v11:0|)) (* (- 3.0) |v10:1|))))
 (let (($x609 (or (and (<= ?x2843 ?x74) $x2837) (or (<= ?x2795 6.0) (<= ?x623 13.0)))))
 (let (($x2437 (or $x609 (and (or (<= ?x2749 ?x745) $x329) (and $x1754 (<= ?x397 11.0))))))
 (let (($x306 (<= (+ (+ (+ ?x2966 (* 16.0 ?x111)) (* ?x951 |v0:11|)) (* 8.0 |v9:2|)) ?x2226)))
 (let ((?x3133 (* 10.0 |v1:10|)))
 (let ((?x1371 (+ (+ (* (- 5.0) |v0:11|) (* (- 3.0) |v11:0|)) (* (- 16.0) |v10:1|))))
 (let ((?x3006 (+ (+ (+ (* 3.0 |v1:10|) (* 6.0 ?x111)) (* 18.0 |v0:11|)) (* ?x1253 ?x2966))))
 (let (($x68 (<= (+ (+ (+ ?x2098 (* 7.0 |v1:10|)) (* ?x118 ?x111)) (* 4.0 |v0:11|)) 13.0)))
 (let (($x1579 (and (and $x68 (or (<= ?x3006 ?x74) (and (<= (+ ?x1371 ?x3133) ?x745) $x306))) $x2437)))
 (let (($x2593 (and (and $x1579 (or (and (or (and $x430 $x1569) $x1548) $x1993) $x50)) (or (or $x1337 $x37) $x333))))
 (let (($x3027 (not (= |v4:7_st| (RMk1 val!4103)))))
 (let (($x820 (not (= |v5:6_st| (RMk1 val!4102)))))
 (let (($x1286 (not (= |v6:5_st| (RMk1 val!4101)))))
 (let (($x2483 (not (= |v7:4_st| (RMk1 val!4100)))))
 (and $x2483 $x1286 $x820 $x3027 $x2593)))))))))))))))))))))))))))))))))))))))))))))))))))))))))))))))))))))))))))))))))))))))))))))))))))))))))))))))))
 )
 )
 )
 )
 )
 )
 )
 )
 )
 )
 )
 )
(check-sat)
